148
1000
321
19
170
103
483
495
240
253
425
259
20
96
224
155
66
194
428
259
246
84
180
204
247
235
92
452
211
48
52
282
493
181
207
293
394
152
154
38
219
74
49
351
228
236
169
91
124
117
261
488
100
64
346
102
11
221
435
5
222
121
427
24
41
66
470
134
334
109
445
404
100
333
161
368
29
16
115
350
403
154
58
154
266
297
147
164
124
112
197
396
77
269
3
489
102
25
133
500
212
319
363
382
116
28
303
104
97
1
131
2
123
14
14
204
471
117
18
50
486
22
65
410
185
445
202
45
436
463
159
153
85
419
93
467
15
490
102
24
19
120
295
35
356
279
107
218
160
91
